p wcnf 42 2318 2319
1 -1 -6 -7 -18 0
1 -1 -6 -7 -22 0
1 -1 -6 -14 -18 0
1 -1 -6 -14 -40 0
1 -1 -6 -18 -21 0
1 -1 -6 -18 -36 0
1 -1 -6 -21 -22 0
1 -1 -6 -21 -34 0
1 -1 -6 -22 -40 0
1 -1 -6 -34 -40 0
1 -1 -6 -36 -40 0
1 -1 -7 -8 -23 0
1 -1 -7 -8 -24 0
1 -1 -7 -8 -25 0
1 -1 -7 -18 -24 0
1 -1 -7 -18 -31 0
1 -1 -7 -18 -42 0
1 -1 -7 -22 -24 0
1 -1 -7 -22 -25 0
1 -1 -7 -22 -28 0
1 -1 -7 -23 -28 0
1 -1 -7 -23 -31 0
1 -1 -7 -24 -37 0
1 -1 -7 -25 -31 0
1 -1 -7 -25 -42 0
1 -1 -7 -28 -42 0
1 -1 -7 -31 -37 0
1 -1 -7 -37 -42 0
1 -1 -8 -12 -23 0
1 -1 -8 -12 -24 0
1 -1 -8 -12 -25 0
1 -1 -8 -20 -21 0
1 -1 -8 -20 -23 0
1 -1 -8 -20 -40 0
1 -1 -8 -21 -24 0
1 -1 -8 -21 -25 0
1 -1 -8 -21 -34 0
1 -1 -8 -23 -34 0
1 -1 -8 -24 -40 0
1 -1 -8 -25 -40 0
1 -1 -8 -34 -40 0
1 -1 -12 -14 -23 0
1 -1 -12 -14 -42 0
1 -1 -12 -22 -24 0
1 -1 -12 -22 -25 0
1 -1 -12 -22 -28 0
1 -1 -12 -23 -28 0
1 -1 -12 -23 -31 0
1 -1 -12 -24 -36 0
1 -1 -12 -25 -31 0
1 -1 -12 -25 -42 0
1 -1 -12 -28 -42 0
1 -1 -12 -31 -36 0
1 -1 -12 -36 -42 0
1 -1 -14 -18 -42 0
1 -1 -14 -20 -23 0
1 -1 -14 -20 -40 0
1 -1 -14 -40 -42 0
1 -1 -18 -21 -24 0
1 -1 -18 -21 -42 0
1 -1 -18 -24 -36 0
1 -1 -18 -31 -36 0
1 -1 -18 -36 -42 0
1 -1 -20 -21 -28 0
1 -1 -20 -21 -37 0
1 -1 -20 -23 -28 0
1 -1 -20 -23 -31 0
1 -1 -20 -28 -40 0
1 -1 -20 -31 -37 0
1 -1 -20 -31 -40 0
1 -1 -21 -22 -24 0
1 -1 -21 -22 -25 0
1 -1 -21 -22 -28 0
1 -1 -21 -24 -37 0
1 -1 -21 -25 -42 0
1 -1 -21 -28 -34 0
1 -1 -21 -28 -42 0
1 -1 -21 -34 -37 0
1 -1 -21 -37 -42 0
1 -1 -22 -24 -40 0
1 -1 -22 -25 -40 0
1 -1 -22 -28 -40 0
1 -1 -23 -28 -34 0
1 -1 -24 -36 -37 0
1 -1 -24 -36 -40 0
1 -1 -25 -31 -40 0
1 -1 -25 -40 -42 0
1 -1 -28 -34 -40 0
1 -1 -28 -40 -42 0
1 -1 -31 -36 -37 0
1 -1 -31 -36 -40 0
1 -1 -36 -37 -42 0
1 -1 -36 -40 -42 0
1 -2 -3 -8 -23 0
1 -2 -3 -8 -25 0
1 -2 -3 -11 -17 0
1 -2 -3 -11 -31 0
1 -2 -3 -11 -41 0
1 -2 -3 -17 -23 0
1 -2 -3 -17 -26 0
1 -2 -3 -19 -23 0
1 -2 -3 -19 -26 0
1 -2 -3 -19 -41 0
1 -2 -3 -23 -31 0
1 -2 -3 -25 -26 0
1 -2 -3 -25 -31 0
1 -2 -3 -25 -41 0
1 -2 -3 -26 -36 0
1 -2 -3 -31 -36 0
1 -2 -3 -36 -41 0
1 -2 -7 -8 -23 0
1 -2 -7 -8 -24 0
1 -2 -7 -8 -25 0
1 -2 -7 -19 -22 0
1 -2 -7 -19 -23 0
1 -2 -7 -19 -42 0
1 -2 -7 -22 -24 0
1 -2 -7 -22 -25 0
1 -2 -7 -22 -32 0
1 -2 -7 -23 -31 0
1 -2 -7 -24 -37 0
1 -2 -7 -25 -31 0
1 -2 -7 -25 -42 0
1 -2 -7 -31 -32 0
1 -2 -7 -31 -37 0
1 -2 -7 -32 -42 0
1 -2 -7 -37 -42 0
1 -2 -8 -9 -23 0
1 -2 -8 -9 -24 0
1 -2 -8 -9 -25 0
1 -2 -8 -12 -23 0
1 -2 -8 -12 -24 0
1 -2 -8 -12 -25 0
1 -2 -9 -17 -23 0
1 -2 -9 -17 -26 0
1 -2 -9 -17 -32 0
1 -2 -9 -17 -37 0
1 -2 -9 -19 -23 0
1 -2 -9 -19 -26 0
1 -2 -9 -19 -41 0
1 -2 -9 -23 -31 0
1 -2 -9 -24 -37 0
1 -2 -9 -24 -41 0
1 -2 -9 -25 -26 0
1 -2 -9 -25 -31 0
1 -2 -9 -25 -41 0
1 -2 -9 -31 -32 0
1 -2 -9 -31 -37 0
1 -2 -9 -32 -41 0
1 -2 -11 -12 -17 0
1 -2 -11 -12 -24 0
1 -2 -11 -12 -31 0
1 -2 -11 -17 -32 0
1 -2 -11 -17 -37 0
1 -2 -11 -24 -37 0
1 -2 -11 -24 -41 0
1 -2 -11 -31 -32 0
1 -2 -11 -31 -37 0
1 -2 -11 -32 -41 0
1 -2 -12 -17 -23 0
1 -2 -12 -17 -42 0
1 -2 -12 -19 -22 0
1 -2 -12 -19 -23 0
1 -2 -12 -19 -42 0
1 -2 -12 -22 -24 0
1 -2 -12 -22 -25 0
1 -2 -12 -23 -31 0
1 -2 -12 -24 -36 0
1 -2 -12 -25 -31 0
1 -2 -12 -25 -42 0
1 -2 -12 -31 -36 0
1 -2 -12 -36 -42 0
1 -2 -17 -26 -42 0
1 -2 -17 -32 -42 0
1 -2 -17 -37 -42 0
1 -2 -19 -22 -26 0
1 -2 -19 -22 -41 0
1 -2 -19 -26 -42 0
1 -2 -19 -41 -42 0
1 -2 -22 -24 -41 0
1 -2 -22 -25 -26 0
1 -2 -22 -25 -41 0
1 -2 -22 -32 -41 0
1 -2 -24 -36 -37 0
1 -2 -24 -36 -41 0
1 -2 -25 -26 -42 0
1 -2 -25 -41 -42 0
1 -2 -26 -36 -42 0
1 -2 -31 -36 -37 0
1 -2 -32 -41 -42 0
1 -2 -36 -37 -42 0
1 -2 -36 -41 -42 0
1 -3 -4 -13 -15 0
1 -3 -4 -13 -20 0
1 -3 -4 -13 -36 0
1 -3 -4 -15 -17 0
1 -3 -4 -15 -29 0
1 -3 -4 -17 -20 0
1 -3 -4 -17 -30 0
1 -3 -4 -20 -41 0
1 -3 -4 -29 -30 0
1 -3 -4 -29 -41 0
1 -3 -4 -30 -36 0
1 -3 -4 -36 -41 0
1 -3 -8 -20 -23 0
1 -3 -8 -20 -40 0
1 -3 -8 -23 -30 0
1 -3 -8 -25 -30 0
1 -3 -8 -25 -40 0
1 -3 -8 -29 -30 0
1 -3 -8 -29 -40 0
1 -3 -8 -30 -35 0
1 -3 -8 -35 -40 0
1 -3 -11 -15 -17 0
1 -3 -11 -15 -29 0
1 -3 -11 -15 -31 0
1 -3 -11 -15 -35 0
1 -3 -11 -17 -20 0
1 -3 -11 -17 -30 0
1 -3 -11 -20 -31 0
1 -3 -11 -20 -41 0
1 -3 -11 -29 -30 0
1 -3 -11 -29 -41 0
1 -3 -11 -30 -31 0
1 -3 -11 -30 -35 0
1 -3 -13 -15 -26 0
1 -3 -13 -15 -31 0
1 -3 -13 -15 -35 0
1 -3 -13 -20 -26 0
1 -3 -13 -20 -31 0
1 -3 -13 -25 -26 0
1 -3 -13 -25 -31 0
1 -3 -13 -26 -36 0
1 -3 -13 -31 -36 0
1 -3 -13 -35 -36 0
1 -3 -15 -17 -23 0
1 -3 -15 -17 -26 0
1 -3 -15 -19 -23 0
1 -3 -15 -19 -26 0
1 -3 -15 -19 -29 0
1 -3 -15 -19 -35 0
1 -3 -15 -23 -31 0
1 -3 -15 -26 -40 0
1 -3 -15 -29 -40 0
1 -3 -15 -31 -40 0
1 -3 -15 -35 -40 0
1 -3 -17 -20 -23 0
1 -3 -17 -20 -26 0
1 -3 -17 -23 -30 0
1 -3 -17 -26 -30 0
1 -3 -19 -20 -23 0
1 -3 -19 -20 -26 0
1 -3 -19 -20 -41 0
1 -3 -19 -23 -30 0
1 -3 -19 -26 -30 0
1 -3 -19 -29 -30 0
1 -3 -19 -29 -41 0
1 -3 -19 -30 -35 0
1 -3 -20 -23 -31 0
1 -3 -20 -26 -40 0
1 -3 -20 -31 -40 0
1 -3 -20 -40 -41 0
1 -3 -23 -30 -31 0
1 -3 -25 -26 -30 0
1 -3 -25 -26 -40 0
1 -3 -25 -30 -31 0
1 -3 -25 -31 -40 0
1 -3 -25 -40 -41 0
1 -3 -26 -30 -36 0
1 -3 -26 -36 -40 0
1 -3 -29 -40 -41 0
1 -3 -30 -31 -36 0
1 -3 -30 -35 -36 0
1 -3 -31 -36 -40 0
1 -3 -35 -36 -40 0
1 -3 -36 -40 -41 0
1 -4 -5 -6 -16 0
1 -4 -5 -6 -21 0
1 -4 -5 -6 -33 0
1 -4 -5 -13 -16 0
1 -4 -5 -13 -21 0
1 -4 -5 -13 -33 0
1 -4 -5 -16 -30 0
1 -4 -5 -16 -37 0
1 -4 -5 -21 -37 0
1 -4 -5 -30 -33 0
1 -4 -5 -33 -37 0
1 -4 -6 -10 -15 0
1 -4 -6 -10 -16 0
1 -4 -6 -10 -21 0
1 -4 -6 -10 -32 0
1 -4 -6 -14 -15 0
1 -4 -6 -14 -16 0
1 -4 -6 -14 -41 0
1 -4 -6 -15 -33 0
1 -4 -6 -16 -36 0
1 -4 -6 -21 -41 0
1 -4 -6 -32 -33 0
1 -4 -6 -32 -41 0
1 -4 -6 -33 -36 0
1 -4 -6 -36 -41 0
1 -4 -10 -13 -15 0
1 -4 -10 -13 -16 0
1 -4 -10 -13 -21 0
1 -4 -10 -13 -32 0
1 -4 -10 -15 -17 0
1 -4 -10 -15 -29 0
1 -4 -10 -16 -17 0
1 -4 -10 -16 -29 0
1 -4 -10 -17 -32 0
1 -4 -10 -21 -29 0
1 -4 -10 -29 -32 0
1 -4 -13 -14 -15 0
1 -4 -13 -14 -16 0
1 -4 -13 -14 -20 0
1 -4 -13 -14 -42 0
1 -4 -13 -15 -33 0
1 -4 -13 -16 -36 0
1 -4 -13 -20 -21 0
1 -4 -13 -20 -32 0
1 -4 -13 -21 -42 0
1 -4 -13 -32 -33 0
1 -4 -13 -32 -42 0
1 -4 -13 -33 -36 0
1 -4 -13 -36 -42 0
1 -4 -14 -15 -17 0
1 -4 -14 -15 -29 0
1 -4 -14 -16 -17 0
1 -4 -14 -16 -29 0
1 -4 -14 -17 -20 0
1 -4 -14 -17 -42 0
1 -4 -14 -20 -41 0
1 -4 -14 -29 -41 0
1 -4 -14 -41 -42 0
1 -4 -15 -17 -33 0
1 -4 -15 -29 -33 0
1 -4 -16 -17 -30 0
1 -4 -16 -17 -37 0
1 -4 -16 -29 -30 0
1 -4 -16 -29 -37 0
1 -4 -16 -30 -36 0
1 -4 -16 -36 -37 0
1 -4 -17 -20 -32 0
1 -4 -17 -20 -37 0
1 -4 -17 -30 -33 0
1 -4 -17 -30 -42 0
1 -4 -17 -32 -33 0
1 -4 -17 -32 -42 0
1 -4 -17 -33 -37 0
1 -4 -17 -37 -42 0
1 -4 -20 -21 -37 0
1 -4 -20 -21 -41 0
1 -4 -20 -32 -41 0
1 -4 -21 -29 -37 0
1 -4 -21 -29 -41 0
1 -4 -21 -37 -42 0
1 -4 -21 -41 -42 0
1 -4 -29 -30 -33 0
1 -4 -29 -32 -33 0
1 -4 -29 -32 -41 0
1 -4 -29 -33 -37 0
1 -4 -30 -33 -36 0
1 -4 -30 -36 -42 0
1 -4 -32 -41 -42 0
1 -4 -33 -36 -37 0
1 -4 -36 -37 -42 0
1 -4 -36 -41 -42 0
1 -5 -6 -7 -18 0
1 -5 -6 -7 -22 0
1 -5 -6 -7 -33 0
1 -5 -6 -16 -18 0
1 -5 -6 -16 -22 0
1 -5 -6 -16 -34 0
1 -5 -6 -18 -21 0
1 -5 -6 -18 -35 0
1 -5 -6 -21 -22 0
1 -5 -6 -21 -34 0
1 -5 -6 -22 -35 0
1 -5 -6 -33 -34 0
1 -5 -6 -33 -35 0
1 -5 -7 -8 -24 0
1 -5 -7 -8 -25 0
1 -5 -7 -18 -24 0
1 -5 -7 -18 -38 0
1 -5 -7 -22 -24 0
1 -5 -7 -22 -25 0
1 -5 -7 -22 -28 0
1 -5 -7 -24 -37 0
1 -5 -7 -25 -38 0
1 -5 -7 -28 -33 0
1 -5 -7 -28 -38 0
1 -5 -7 -33 -37 0
1 -5 -7 -37 -38 0
1 -5 -8 -21 -24 0
1 -5 -8 -21 -25 0
1 -5 -8 -21 -34 0
1 -5 -8 -24 -35 0
1 -5 -8 -25 -30 0
1 -5 -8 -25 -39 0
1 -5 -8 -30 -34 0
1 -5 -8 -30 -35 0
1 -5 -8 -34 -39 0
1 -5 -8 -35 -39 0
1 -5 -13 -16 -18 0
1 -5 -13 -16 -39 0
1 -5 -13 -18 -21 0
1 -5 -13 -18 -35 0
1 -5 -13 -21 -25 0
1 -5 -13 -21 -28 0
1 -5 -13 -25 -39 0
1 -5 -13 -28 -33 0
1 -5 -13 -28 -39 0
1 -5 -13 -33 -35 0
1 -5 -13 -35 -39 0
1 -5 -16 -18 -24 0
1 -5 -16 -18 -38 0
1 -5 -16 -22 -24 0
1 -5 -16 -22 -39 0
1 -5 -16 -24 -37 0
1 -5 -16 -30 -34 0
1 -5 -16 -30 -38 0
1 -5 -16 -34 -37 0
1 -5 -16 -34 -39 0
1 -5 -16 -37 -38 0
1 -5 -16 -38 -39 0
1 -5 -18 -21 -24 0
1 -5 -18 -21 -38 0
1 -5 -18 -24 -35 0
1 -5 -18 -35 -38 0
1 -5 -21 -22 -24 0
1 -5 -21 -22 -25 0
1 -5 -21 -22 -28 0
1 -5 -21 -24 -37 0
1 -5 -21 -25 -38 0
1 -5 -21 -28 -34 0
1 -5 -21 -28 -38 0
1 -5 -21 -34 -37 0
1 -5 -21 -37 -38 0
1 -5 -22 -24 -35 0
1 -5 -22 -25 -39 0
1 -5 -22 -28 -39 0
1 -5 -22 -35 -39 0
1 -5 -24 -35 -37 0
1 -5 -25 -30 -38 0
1 -5 -25 -38 -39 0
1 -5 -28 -33 -34 0
1 -5 -28 -34 -39 0
1 -5 -28 -38 -39 0
1 -5 -30 -33 -34 0
1 -5 -30 -33 -35 0
1 -5 -30 -35 -38 0
1 -5 -33 -34 -37 0
1 -5 -33 -35 -37 0
1 -5 -35 -37 -38 0
1 -5 -35 -38 -39 0
1 -6 -7 -18 -32 0
1 -6 -7 -19 -22 0
1 -6 -7 -22 -32 0
1 -6 -7 -32 -33 0
1 -6 -10 -15 -18 0
1 -6 -10 -15 -34 0
1 -6 -10 -16 -18 0
1 -6 -10 -16 -22 0
1 -6 -10 -16 -34 0
1 -6 -10 -18 -21 0
1 -6 -10 -18 -32 0
1 -6 -10 -21 -22 0
1 -6 -10 -21 -34 0
1 -6 -10 -22 -32 0
1 -6 -10 -32 -34 0
1 -6 -14 -15 -18 0
1 -6 -14 -15 -19 0
1 -6 -14 -15 -40 0
1 -6 -14 -16 -18 0
1 -6 -14 -16 -40 0
1 -6 -14 -18 -41 0
1 -6 -14 -19 -41 0
1 -6 -14 -40 -41 0
1 -6 -15 -18 -35 0
1 -6 -15 -19 -34 0
1 -6 -15 -19 -35 0
1 -6 -15 -33 -34 0
1 -6 -15 -33 -35 0
1 -6 -15 -34 -40 0
1 -6 -15 -35 -40 0
1 -6 -16 -18 -36 0
1 -6 -16 -22 -40 0
1 -6 -16 -34 -40 0
1 -6 -16 -36 -40 0
1 -6 -18 -21 -41 0
1 -6 -18 -32 -35 0
1 -6 -18 -32 -41 0
1 -6 -18 -35 -36 0
1 -6 -18 -36 -41 0
1 -6 -19 -22 -35 0
1 -6 -19 -22 -41 0
1 -6 -19 -34 -41 0
1 -6 -21 -22 -41 0
1 -6 -21 -34 -41 0
1 -6 -22 -32 -35 0
1 -6 -22 -32 -41 0
1 -6 -22 -35 -40 0
1 -6 -22 -40 -41 0
1 -6 -32 -33 -34 0
1 -6 -32 -33 -35 0
1 -6 -32 -34 -41 0
1 -6 -33 -35 -36 0
1 -6 -34 -40 -41 0
1 -6 -35 -36 -40 0
1 -6 -36 -40 -41 0
1 -7 -8 -23 -27 0
1 -7 -8 -24 -27 0
1 -7 -8 -25 -27 0
1 -7 -18 -24 -27 0
1 -7 -18 -27 -32 0
1 -7 -18 -27 -38 0
1 -7 -18 -31 -32 0
1 -7 -18 -31 -38 0
1 -7 -18 -32 -42 0
1 -7 -18 -38 -42 0
1 -7 -19 -22 -27 0
1 -7 -19 -22 -28 0
1 -7 -19 -23 -27 0
1 -7 -19 -23 -28 0
1 -7 -19 -28 -42 0
1 -7 -22 -24 -27 0
1 -7 -22 -25 -27 0
1 -7 -22 -27 -32 0
1 -7 -22 -28 -32 0
1 -7 -23 -27 -33 0
1 -7 -23 -27 -38 0
1 -7 -23 -28 -33 0
1 -7 -23 -28 -38 0
1 -7 -23 -31 -33 0
1 -7 -23 -31 -38 0
1 -7 -24 -27 -37 0
1 -7 -25 -27 -38 0
1 -7 -25 -31 -38 0
1 -7 -25 -38 -42 0
1 -7 -27 -32 -33 0
1 -7 -27 -33 -37 0
1 -7 -27 -37 -38 0
1 -7 -28 -32 -33 0
1 -7 -28 -32 -42 0
1 -7 -28 -38 -42 0
1 -7 -31 -32 -33 0
1 -7 -31 -33 -37 0
1 -7 -31 -37 -38 0
1 -7 -37 -38 -42 0
1 -8 -9 -20 -21 0
1 -8 -9 -20 -23 0
1 -8 -9 -20 -40 0
1 -8 -9 -21 -24 0
1 -8 -9 -21 -25 0
1 -8 -9 -21 -34 0
1 -8 -9 -23 -27 0
1 -8 -9 -23 -34 0
1 -8 -9 -24 -27 0
1 -8 -9 -24 -40 0
1 -8 -9 -25 -27 0
1 -8 -9 -25 -40 0
1 -8 -9 -34 -40 0
1 -8 -12 -23 -30 0
1 -8 -12 -23 -39 0
1 -8 -12 -24 -29 0
1 -8 -12 -24 -35 0
1 -8 -12 -25 -30 0
1 -8 -12 -25 -39 0
1 -8 -12 -29 -30 0
1 -8 -12 -30 -35 0
1 -8 -12 -35 -39 0
1 -8 -20 -23 -39 0
1 -8 -20 -39 -40 0
1 -8 -21 -24 -29 0
1 -8 -21 -29 -34 0
1 -8 -23 -27 -30 0
1 -8 -23 -27 -39 0
1 -8 -23 -30 -34 0
1 -8 -23 -34 -39 0
1 -8 -24 -27 -29 0
1 -8 -24 -27 -35 0
1 -8 -24 -29 -40 0
1 -8 -24 -35 -40 0
1 -8 -25 -27 -30 0
1 -8 -25 -27 -39 0
1 -8 -25 -39 -40 0
1 -8 -27 -29 -30 0
1 -8 -27 -30 -35 0
1 -8 -27 -35 -39 0
1 -8 -29 -30 -34 0
1 -8 -29 -34 -40 0
1 -8 -34 -39 -40 0
1 -8 -35 -39 -40 0
1 -9 -10 -17 -26 0
1 -9 -10 -17 -32 0
1 -9 -10 -17 -38 0
1 -9 -10 -21 -24 0
1 -9 -10 -21 -34 0
1 -9 -10 -21 -38 0
1 -9 -10 -24 -27 0
1 -9 -10 -26 -27 0
1 -9 -10 -26 -34 0
1 -9 -10 -27 -32 0
1 -9 -10 -27 -38 0
1 -9 -10 -32 -34 0
1 -9 -17 -20 -23 0
1 -9 -17 -20 -26 0
1 -9 -17 -20 -32 0
1 -9 -17 -20 -37 0
1 -9 -17 -23 -33 0
1 -9 -17 -23 -38 0
1 -9 -17 -26 -33 0
1 -9 -17 -32 -33 0
1 -9 -17 -33 -37 0
1 -9 -17 -37 -38 0
1 -9 -19 -20 -23 0
1 -9 -19 -20 -26 0
1 -9 -19 -20 -41 0
1 -9 -19 -23 -27 0
1 -9 -19 -23 -34 0
1 -9 -19 -26 -27 0
1 -9 -19 -26 -34 0
1 -9 -19 -27 -41 0
1 -9 -19 -34 -41 0
1 -9 -20 -21 -37 0
1 -9 -20 -21 -41 0
1 -9 -20 -23 -31 0
1 -9 -20 -26 -40 0
1 -9 -20 -31 -32 0
1 -9 -20 -31 -37 0
1 -9 -20 -31 -40 0
1 -9 -20 -32 -41 0
1 -9 -20 -40 -41 0
1 -9 -21 -24 -37 0
1 -9 -21 -24 -41 0
1 -9 -21 -25 -38 0
1 -9 -21 -25 -41 0
1 -9 -21 -34 -37 0
1 -9 -21 -34 -41 0
1 -9 -21 -37 -38 0
1 -9 -23 -27 -33 0
1 -9 -23 -27 -38 0
1 -9 -23 -31 -33 0
1 -9 -23 -31 -38 0
1 -9 -23 -33 -34 0
1 -9 -24 -27 -37 0
1 -9 -24 -27 -41 0
1 -9 -24 -40 -41 0
1 -9 -25 -26 -27 0
1 -9 -25 -26 -40 0
1 -9 -25 -27 -38 0
1 -9 -25 -27 -41 0
1 -9 -25 -31 -38 0
1 -9 -25 -31 -40 0
1 -9 -25 -40 -41 0
1 -9 -26 -27 -33 0
1 -9 -26 -33 -34 0
1 -9 -26 -34 -40 0
1 -9 -27 -32 -33 0
1 -9 -27 -32 -41 0
1 -9 -27 -33 -37 0
1 -9 -27 -37 -38 0
1 -9 -31 -32 -33 0
1 -9 -31 -33 -37 0
1 -9 -31 -37 -38 0
1 -9 -32 -33 -34 0
1 -9 -32 -34 -41 0
1 -9 -33 -34 -37 0
1 -9 -34 -40 -41 0
1 -10 -11 -15 -17 0
1 -10 -11 -15 -18 0
1 -10 -11 -15 -29 0
1 -10 -11 -15 -39 0
1 -10 -11 -17 -32 0
1 -10 -11 -17 -38 0
1 -10 -11 -18 -24 0
1 -10 -11 -18 -32 0
1 -10 -11 -18 -38 0
1 -10 -11 -24 -29 0
1 -10 -11 -29 -32 0
1 -10 -11 -29 -38 0
1 -10 -11 -38 -39 0
1 -10 -13 -15 -18 0
1 -10 -13 -15 -26 0
1 -10 -13 -15 -39 0
1 -10 -13 -16 -18 0
1 -10 -13 -16 -26 0
1 -10 -13 -16 -39 0
1 -10 -13 -18 -21 0
1 -10 -13 -18 -32 0
1 -10 -13 -21 -28 0
1 -10 -13 -26 -28 0
1 -10 -13 -28 -32 0
1 -10 -13 -28 -39 0
1 -10 -15 -17 -26 0
1 -10 -15 -18 -27 0
1 -10 -15 -26 -27 0
1 -10 -15 -26 -34 0
1 -10 -15 -27 -29 0
1 -10 -15 -27 -39 0
1 -10 -15 -29 -34 0
1 -10 -15 -34 -39 0
1 -10 -16 -17 -26 0
1 -10 -16 -17 -38 0
1 -10 -16 -18 -24 0
1 -10 -16 -18 -38 0
1 -10 -16 -22 -24 0
1 -10 -16 -22 -26 0
1 -10 -16 -22 -39 0
1 -10 -16 -24 -29 0
1 -10 -16 -26 -34 0
1 -10 -16 -29 -34 0
1 -10 -16 -29 -38 0
1 -10 -16 -34 -39 0
1 -10 -16 -38 -39 0
1 -10 -17 -26 -28 0
1 -10 -17 -28 -32 0
1 -10 -17 -28 -38 0
1 -10 -18 -21 -24 0
1 -10 -18 -21 -38 0
1 -10 -18 -24 -27 0
1 -10 -18 -27 -32 0
1 -10 -18 -27 -38 0
1 -10 -21 -22 -24 0
1 -10 -21 -22 -28 0
1 -10 -21 -24 -29 0
1 -10 -21 -28 -34 0
1 -10 -21 -28 -38 0
1 -10 -21 -29 -34 0
1 -10 -21 -29 -38 0
1 -10 -22 -24 -27 0
1 -10 -22 -26 -27 0
1 -10 -22 -26 -28 0
1 -10 -22 -27 -32 0
1 -10 -22 -27 -39 0
1 -10 -22 -28 -32 0
1 -10 -22 -28 -39 0
1 -10 -24 -27 -29 0
1 -10 -26 -28 -34 0
1 -10 -27 -29 -32 0
1 -10 -27 -29 -38 0
1 -10 -27 -38 -39 0
1 -10 -28 -32 -34 0
1 -10 -28 -34 -39 0
1 -10 -28 -38 -39 0
1 -10 -29 -32 -34 0
1 -11 -12 -14 -17 0
1 -11 -12 -14 -29 0
1 -11 -12 -14 -39 0
1 -11 -12 -17 -30 0
1 -11 -12 -24 -29 0
1 -11 -12 -24 -35 0
1 -11 -12 -29 -30 0
1 -11 -12 -30 -31 0
1 -11 -12 -30 -35 0
1 -11 -12 -31 -39 0
1 -11 -12 -35 -39 0
1 -11 -14 -15 -17 0
1 -11 -14 -15 -18 0
1 -11 -14 -15 -29 0
1 -11 -14 -15 -39 0
1 -11 -14 -17 -20 0
1 -11 -14 -17 -38 0
1 -11 -14 -18 -38 0
1 -11 -14 -18 -41 0
1 -11 -14 -20 -39 0
1 -11 -14 -20 -41 0
1 -11 -14 -29 -38 0
1 -11 -14 -29 -41 0
1 -11 -14 -38 -39 0
1 -11 -15 -17 -33 0
1 -11 -15 -18 -31 0
1 -11 -15 -18 -35 0
1 -11 -15 -29 -33 0
1 -11 -15 -31 -33 0
1 -11 -15 -31 -39 0
1 -11 -15 -33 -35 0
1 -11 -15 -35 -39 0
1 -11 -17 -20 -32 0
1 -11 -17 -20 -37 0
1 -11 -17 -30 -33 0
1 -11 -17 -30 -38 0
1 -11 -17 -32 -33 0
1 -11 -17 -33 -37 0
1 -11 -17 -37 -38 0
1 -11 -18 -24 -35 0
1 -11 -18 -24 -41 0
1 -11 -18 -31 -32 0
1 -11 -18 -31 -38 0
1 -11 -18 -32 -35 0
1 -11 -18 -32 -41 0
1 -11 -18 -35 -38 0
1 -11 -20 -31 -32 0
1 -11 -20 -31 -37 0
1 -11 -20 -31 -39 0
1 -11 -20 -32 -41 0
1 -11 -24 -29 -37 0
1 -11 -24 -29 -41 0
1 -11 -24 -35 -37 0
1 -11 -29 -30 -33 0
1 -11 -29 -30 -38 0
1 -11 -29 -32 -33 0
1 -11 -29 -32 -41 0
1 -11 -29 -33 -37 0
1 -11 -29 -37 -38 0
1 -11 -30 -31 -33 0
1 -11 -30 -31 -38 0
1 -11 -30 -33 -35 0
1 -11 -30 -35 -38 0
1 -11 -31 -32 -33 0
1 -11 -31 -33 -37 0
1 -11 -31 -37 -38 0
1 -11 -31 -38 -39 0
1 -11 -32 -33 -35 0
1 -11 -33 -35 -37 0
1 -11 -35 -37 -38 0
1 -11 -35 -38 -39 0
1 -12 -14 -16 -17 0
1 -12 -14 -16 -29 0
1 -12 -14 -16 -39 0
1 -12 -14 -17 -23 0
1 -12 -14 -17 -42 0
1 -12 -14 -19 -23 0
1 -12 -14 -19 -29 0
1 -12 -14 -19 -42 0
1 -12 -14 -23 -39 0
1 -12 -14 -39 -42 0
1 -12 -16 -17 -30 0
1 -12 -16 -22 -24 0
1 -12 -16 -22 -39 0
1 -12 -16 -24 -29 0
1 -12 -16 -24 -36 0
1 -12 -16 -29 -30 0
1 -12 -16 -30 -36 0
1 -12 -16 -36 -39 0
1 -12 -17 -23 -28 0
1 -12 -17 -23 -30 0
1 -12 -17 -28 -42 0
1 -12 -17 -30 -42 0
1 -12 -19 -22 -28 0
1 -12 -19 -22 -35 0
1 -12 -19 -23 -28 0
1 -12 -19 -23 -30 0
1 -12 -19 -28 -42 0
1 -12 -19 -29 -30 0
1 -12 -19 -30 -35 0
1 -12 -19 -30 -42 0
1 -12 -22 -24 -35 0
1 -12 -22 -25 -39 0
1 -12 -22 -28 -39 0
1 -12 -22 -35 -39 0
1 -12 -23 -28 -39 0
1 -12 -23 -30 -31 0
1 -12 -23 -31 -39 0
1 -12 -24 -35 -36 0
1 -12 -25 -30 -31 0
1 -12 -25 -30 -42 0
1 -12 -25 -31 -39 0
1 -12 -25 -39 -42 0
1 -12 -28 -39 -42 0
1 -12 -30 -31 -36 0
1 -12 -30 -35 -36 0
1 -12 -30 -36 -42 0
1 -12 -31 -36 -39 0
1 -12 -35 -36 -39 0
1 -12 -36 -39 -42 0
1 -13 -14 -15 -18 0
1 -13 -14 -15 -26 0
1 -13 -14 -15 -39 0
1 -13 -14 -16 -18 0
1 -13 -14 -16 -26 0
1 -13 -14 -16 -39 0
1 -13 -14 -18 -42 0
1 -13 -14 -20 -26 0
1 -13 -14 -20 -39 0
1 -13 -14 -26 -42 0
1 -13 -14 -39 -42 0
1 -13 -15 -18 -31 0
1 -13 -15 -18 -35 0
1 -13 -15 -26 -33 0
1 -13 -15 -31 -33 0
1 -13 -15 -31 -39 0
1 -13 -15 -33 -35 0
1 -13 -15 -35 -39 0
1 -13 -16 -18 -36 0
1 -13 -16 -26 -36 0
1 -13 -16 -36 -39 0
1 -13 -18 -21 -42 0
1 -13 -18 -31 -32 0
1 -13 -18 -31 -36 0
1 -13 -18 -32 -35 0
1 -13 -18 -32 -42 0
1 -13 -18 -35 -36 0
1 -13 -18 -36 -42 0
1 -13 -20 -21 -28 0
1 -13 -20 -26 -28 0
1 -13 -20 -28 -32 0
1 -13 -20 -28 -39 0
1 -13 -20 -31 -32 0
1 -13 -20 -31 -39 0
1 -13 -21 -25 -42 0
1 -13 -21 -28 -42 0
1 -13 -25 -26 -42 0
1 -13 -25 -31 -39 0
1 -13 -25 -39 -42 0
1 -13 -26 -28 -33 0
1 -13 -26 -28 -42 0
1 -13 -26 -33 -36 0
1 -13 -26 -36 -42 0
1 -13 -28 -32 -33 0
1 -13 -28 -32 -42 0
1 -13 -28 -39 -42 0
1 -13 -31 -32 -33 0
1 -13 -31 -33 -36 0
1 -13 -31 -36 -39 0
1 -13 -32 -33 -35 0
1 -13 -33 -35 -36 0
1 -13 -35 -36 -39 0
1 -13 -36 -39 -42 0
1 -14 -15 -17 -23 0
1 -14 -15 -17 -26 0
1 -14 -15 -19 -23 0
1 -14 -15 -19 -26 0
1 -14 -15 -19 -29 0
1 -14 -15 -23 -39 0
1 -14 -15 -26 -40 0
1 -14 -15 -29 -40 0
1 -14 -15 -39 -40 0
1 -14 -16 -17 -26 0
1 -14 -16 -17 -38 0
1 -14 -16 -18 -38 0
1 -14 -16 -26 -40 0
1 -14 -16 -29 -38 0
1 -14 -16 -29 -40 0
1 -14 -16 -38 -39 0
1 -14 -16 -39 -40 0
1 -14 -17 -20 -23 0
1 -14 -17 -20 -26 0
1 -14 -17 -23 -38 0
1 -14 -17 -26 -42 0
1 -14 -17 -38 -42 0
1 -14 -18 -38 -42 0
1 -14 -18 -41 -42 0
1 -14 -19 -20 -23 0
1 -14 -19 -20 -26 0
1 -14 -19 -20 -41 0
1 -14 -19 -26 -42 0
1 -14 -19 -29 -41 0
1 -14 -19 -41 -42 0
1 -14 -20 -23 -39 0
1 -14 -20 -26 -40 0
1 -14 -20 -39 -40 0
1 -14 -20 -40 -41 0
1 -14 -23 -38 -39 0
1 -14 -26 -40 -42 0
1 -14 -29 -40 -41 0
1 -14 -38 -39 -42 0
1 -14 -39 -40 -42 0
1 -14 -40 -41 -42 0
1 -15 -17 -23 -33 0
1 -15 -17 -26 -33 0
1 -15 -18 -27 -35 0
1 -15 -19 -23 -27 0
1 -15 -19 -23 -34 0
1 -15 -19 -26 -27 0
1 -15 -19 -26 -34 0
1 -15 -19 -27 -29 0
1 -15 -19 -27 -35 0
1 -15 -19 -29 -34 0
1 -15 -23 -27 -33 0
1 -15 -23 -27 -39 0
1 -15 -23 -31 -33 0
1 -15 -23 -31 -39 0
1 -15 -23 -33 -34 0
1 -15 -23 -34 -39 0
1 -15 -26 -27 -33 0
1 -15 -26 -33 -34 0
1 -15 -26 -34 -40 0
1 -15 -27 -29 -33 0
1 -15 -27 -33 -35 0
1 -15 -27 -35 -39 0
1 -15 -29 -33 -34 0
1 -15 -29 -34 -40 0
1 -15 -31 -39 -40 0
1 -15 -34 -39 -40 0
1 -15 -35 -39 -40 0
1 -16 -17 -26 -30 0
1 -16 -17 -30 -38 0
1 -16 -17 -37 -38 0
1 -16 -18 -24 -36 0
1 -16 -18 -36 -38 0
1 -16 -22 -24 -40 0
1 -16 -22 -26 -40 0
1 -16 -22 -39 -40 0
1 -16 -24 -29 -37 0
1 -16 -24 -29 -40 0
1 -16 -24 -36 -37 0
1 -16 -24 -36 -40 0
1 -16 -26 -30 -34 0
1 -16 -26 -30 -36 0
1 -16 -26 -34 -40 0
1 -16 -26 -36 -40 0
1 -16 -29 -30 -34 0
1 -16 -29 -30 -38 0
1 -16 -29 -34 -37 0
1 -16 -29 -34 -40 0
1 -16 -29 -37 -38 0
1 -16 -30 -36 -38 0
1 -16 -34 -39 -40 0
1 -16 -36 -37 -38 0
1 -16 -36 -38 -39 0
1 -16 -36 -39 -40 0
1 -17 -20 -23 -28 0
1 -17 -20 -26 -28 0
1 -17 -20 -28 -32 0
1 -17 -23 -28 -33 0
1 -17 -23 -28 -38 0
1 -17 -23 -30 -33 0
1 -17 -23 -30 -38 0
1 -17 -26 -28 -33 0
1 -17 -26 -28 -42 0
1 -17 -26 -30 -33 0
1 -17 -26 -30 -42 0
1 -17 -28 -32 -33 0
1 -17 -28 -32 -42 0
1 -17 -28 -38 -42 0
1 -17 -30 -38 -42 0
1 -17 -37 -38 -42 0
1 -18 -21 -24 -41 0
1 -18 -21 -38 -42 0
1 -18 -21 -41 -42 0
1 -18 -24 -27 -35 0
1 -18 -24 -27 -41 0
1 -18 -24 -35 -36 0
1 -18 -24 -36 -41 0
1 -18 -27 -32 -35 0
1 -18 -27 -32 -41 0
1 -18 -27 -35 -38 0
1 -18 -31 -36 -38 0
1 -18 -32 -41 -42 0
1 -18 -35 -36 -38 0
1 -18 -36 -38 -42 0
1 -18 -36 -41 -42 0
1 -19 -20 -23 -28 0
1 -19 -20 -26 -28 0
1 -19 -20 -28 -41 0
1 -19 -22 -26 -27 0
1 -19 -22 -26 -28 0
1 -19 -22 -27 -35 0
1 -19 -22 -27 -41 0
1 -19 -22 -28 -41 0
1 -19 -23 -27 -30 0
1 -19 -23 -28 -34 0
1 -19 -23 -30 -34 0
1 -19 -26 -27 -30 0
1 -19 -26 -28 -34 0
1 -19 -26 -28 -42 0
1 -19 -26 -30 -34 0
1 -19 -26 -30 -42 0
1 -19 -27 -29 -30 0
1 -19 -27 -29 -41 0
1 -19 -27 -30 -35 0
1 -19 -28 -34 -41 0
1 -19 -28 -41 -42 0
1 -19 -29 -30 -34 0
1 -19 -29 -34 -41 0
1 -20 -21 -28 -41 0
1 -20 -23 -28 -39 0
1 -20 -23 -31 -39 0
1 -20 -26 -28 -40 0
1 -20 -28 -32 -41 0
1 -20 -28 -39 -40 0
1 -20 -28 -40 -41 0
1 -20 -31 -39 -40 0
1 -21 -22 -24 -41 0
1 -21 -22 -25 -41 0
1 -21 -22 -28 -41 0
1 -21 -24 -29 -37 0
1 -21 -24 -29 -41 0
1 -21 -25 -38 -42 0
1 -21 -25 -41 -42 0
1 -21 -28 -34 -41 0
1 -21 -28 -38 -42 0
1 -21 -28 -41 -42 0
1 -21 -29 -34 -37 0
1 -21 -29 -34 -41 0
1 -21 -29 -37 -38 0
1 -21 -37 -38 -42 0
1 -22 -24 -27 -35 0
1 -22 -24 -27 -41 0
1 -22 -24 -35 -40 0
1 -22 -24 -40 -41 0
1 -22 -25 -26 -27 0
1 -22 -25 -26 -40 0
1 -22 -25 -27 -39 0
1 -22 -25 -27 -41 0
1 -22 -25 -39 -40 0
1 -22 -25 -40 -41 0
1 -22 -26 -28 -40 0
1 -22 -27 -32 -35 0
1 -22 -27 -32 -41 0
1 -22 -27 -35 -39 0
1 -22 -28 -32 -41 0
1 -22 -28 -39 -40 0
1 -22 -28 -40 -41 0
1 -22 -35 -39 -40 0
1 -23 -27 -30 -33 0
1 -23 -27 -30 -38 0
1 -23 -27 -38 -39 0
1 -23 -28 -33 -34 0
1 -23 -28 -34 -39 0
1 -23 -28 -38 -39 0
1 -23 -30 -31 -33 0
1 -23 -30 -31 -38 0
1 -23 -30 -33 -34 0
1 -23 -31 -38 -39 0
1 -24 -27 -29 -37 0
1 -24 -27 -29 -41 0
1 -24 -27 -35 -37 0
1 -24 -29 -40 -41 0
1 -24 -35 -36 -37 0
1 -24 -35 -36 -40 0
1 -24 -36 -40 -41 0
1 -25 -26 -27 -30 0
1 -25 -26 -30 -42 0
1 -25 -26 -40 -42 0
1 -25 -27 -30 -38 0
1 -25 -27 -38 -39 0
1 -25 -30 -31 -38 0
1 -25 -30 -38 -42 0
1 -25 -31 -38 -39 0
1 -25 -31 -39 -40 0
1 -25 -38 -39 -42 0
1 -25 -39 -40 -42 0
1 -25 -40 -41 -42 0
1 -26 -27 -30 -33 0
1 -26 -28 -33 -34 0
1 -26 -28 -34 -40 0
1 -26 -28 -40 -42 0
1 -26 -30 -33 -34 0
1 -26 -30 -33 -36 0
1 -26 -30 -36 -42 0
1 -26 -36 -40 -42 0
1 -27 -29 -30 -33 0
1 -27 -29 -30 -38 0
1 -27 -29 -32 -33 0
1 -27 -29 -32 -41 0
1 -27 -29 -33 -37 0
1 -27 -29 -37 -38 0
1 -27 -30 -33 -35 0
1 -27 -30 -35 -38 0
1 -27 -32 -33 -35 0
1 -27 -33 -35 -37 0
1 -27 -35 -37 -38 0
1 -27 -35 -38 -39 0
1 -28 -32 -33 -34 0
1 -28 -32 -34 -41 0
1 -28 -32 -41 -42 0
1 -28 -34 -39 -40 0
1 -28 -34 -40 -41 0
1 -28 -38 -39 -42 0
1 -28 -39 -40 -42 0
1 -28 -40 -41 -42 0
1 -29 -30 -33 -34 0
1 -29 -32 -33 -34 0
1 -29 -32 -34 -41 0
1 -29 -33 -34 -37 0
1 -29 -34 -40 -41 0
1 -30 -31 -33 -36 0
1 -30 -31 -36 -38 0
1 -30 -33 -35 -36 0
1 -30 -35 -36 -38 0
1 -30 -36 -38 -42 0
1 -31 -33 -36 -37 0
1 -31 -36 -37 -38 0
1 -31 -36 -38 -39 0
1 -31 -36 -39 -40 0
1 -33 -35 -36 -37 0
1 -35 -36 -37 -38 0
1 -35 -36 -38 -39 0
1 -35 -36 -39 -40 0
1 -36 -37 -38 -42 0
1 -36 -38 -39 -42 0
1 -36 -39 -40 -42 0
1 -36 -40 -41 -42 0
1 1 2 4 27 0
1 1 2 4 35 0
1 1 2 4 38 0
1 1 2 4 39 0
1 1 2 5 10 0
1 1 2 5 15 0
1 1 2 5 27 0
1 1 2 5 29 0
1 1 2 10 30 0
1 1 2 10 33 0
1 1 2 10 35 0
1 1 2 13 27 0
1 1 2 13 29 0
1 1 2 13 30 0
1 1 2 13 38 0
1 1 2 15 16 0
1 1 2 15 30 0
1 1 2 15 38 0
1 1 2 16 27 0
1 1 2 16 33 0
1 1 2 16 35 0
1 1 2 29 35 0
1 1 2 29 39 0
1 1 2 30 39 0
1 1 2 33 38 0
1 1 2 33 39 0
1 1 3 5 9 0
1 1 3 5 10 0
1 1 3 5 27 0
1 1 3 5 32 0
1 1 3 9 16 0
1 1 3 9 39 0
1 1 3 10 33 0
1 1 3 16 27 0
1 1 3 16 32 0
1 1 3 16 33 0
1 1 3 32 38 0
1 1 3 32 39 0
1 1 3 33 38 0
1 1 3 33 39 0
1 1 4 9 11 0
1 1 4 9 35 0
1 1 4 9 39 0
1 1 4 11 19 0
1 1 4 11 26 0
1 1 4 11 27 0
1 1 4 19 38 0
1 1 4 19 39 0
1 1 4 26 35 0
1 1 4 26 38 0
1 1 4 26 39 0
1 1 5 9 11 0
1 1 5 9 15 0
1 1 5 9 29 0
1 1 5 10 19 0
1 1 5 10 41 0
1 1 5 11 19 0
1 1 5 11 26 0
1 1 5 11 27 0
1 1 5 15 32 0
1 1 5 15 41 0
1 1 5 17 19 0
1 1 5 17 27 0
1 1 5 17 29 0
1 1 5 17 41 0
1 1 5 19 32 0
1 1 5 26 29 0
1 1 5 26 32 0
1 1 5 26 41 0
1 1 9 11 13 0
1 1 9 11 16 0
1 1 9 13 29 0
1 1 9 13 30 0
1 1 9 15 16 0
1 1 9 15 30 0
1 1 9 16 35 0
1 1 9 29 35 0
1 1 9 29 39 0
1 1 9 30 39 0
1 1 10 19 33 0
1 1 10 30 41 0
1 1 10 33 41 0
1 1 10 35 41 0
1 1 11 13 19 0
1 1 11 13 27 0
1 1 11 16 19 0
1 1 11 16 27 0
1 1 13 17 19 0
1 1 13 17 27 0
1 1 13 17 29 0
1 1 13 17 41 0
1 1 13 19 38 0
1 1 13 30 41 0
1 1 13 38 41 0
1 1 15 16 32 0
1 1 15 16 41 0
1 1 15 30 32 0
1 1 15 30 41 0
1 1 15 32 38 0
1 1 15 38 41 0
1 1 16 19 32 0
1 1 16 19 33 0
1 1 16 33 41 0
1 1 16 35 41 0
1 1 17 19 39 0
1 1 17 29 35 0
1 1 17 29 39 0
1 1 17 35 41 0
1 1 17 39 41 0
1 1 19 32 38 0
1 1 19 32 39 0
1 1 19 33 38 0
1 1 19 33 39 0
1 1 26 29 35 0
1 1 26 29 39 0
1 1 26 32 38 0
1 1 26 32 39 0
1 1 26 35 41 0
1 1 26 38 41 0
1 1 26 39 41 0
1 1 30 32 39 0
1 1 30 39 41 0
1 1 33 38 41 0
1 1 33 39 41 0
1 2 4 18 28 0
1 2 4 18 34 0
1 2 4 18 39 0
1 2 4 18 40 0
1 2 4 27 28 0
1 2 4 27 34 0
1 2 4 27 40 0
1 2 4 28 35 0
1 2 4 34 35 0
1 2 4 34 38 0
1 2 4 38 40 0
1 2 5 10 14 0
1 2 5 10 20 0
1 2 5 10 40 0
1 2 5 14 27 0
1 2 5 15 20 0
1 2 5 20 27 0
1 2 5 20 29 0
1 2 5 27 40 0
1 2 6 13 27 0
1 2 6 13 29 0
1 2 6 13 30 0
1 2 6 13 38 0
1 2 6 20 27 0
1 2 6 20 29 0
1 2 6 20 30 0
1 2 6 20 38 0
1 2 6 27 28 0
1 2 6 28 29 0
1 2 6 28 30 0
1 2 6 29 39 0
1 2 6 30 39 0
1 2 10 14 30 0
1 2 10 14 33 0
1 2 10 14 35 0
1 2 10 20 30 0
1 2 10 20 33 0
1 2 10 20 35 0
1 2 10 30 40 0
1 2 10 33 40 0
1 2 13 27 34 0
1 2 13 27 40 0
1 2 13 30 40 0
1 2 13 34 38 0
1 2 13 38 40 0
1 2 14 21 27 0
1 2 14 21 30 0
1 2 14 21 33 0
1 2 14 21 35 0
1 2 14 27 28 0
1 2 14 27 34 0
1 2 14 28 30 0
1 2 14 28 35 0
1 2 14 34 35 0
1 2 15 16 20 0
1 2 15 16 21 0
1 2 15 16 28 0
1 2 15 20 30 0
1 2 15 20 38 0
1 2 15 21 30 0
1 2 15 28 30 0
1 2 16 20 27 0
1 2 16 20 33 0
1 2 16 20 35 0
1 2 16 21 27 0
1 2 16 21 33 0
1 2 16 21 35 0
1 2 16 27 28 0
1 2 16 28 35 0
1 2 18 20 29 0
1 2 18 20 30 0
1 2 18 20 33 0
1 2 18 20 34 0
1 2 18 28 29 0
1 2 18 28 30 0
1 2 18 29 39 0
1 2 18 30 39 0
1 2 18 30 40 0
1 2 18 33 39 0
1 2 18 33 40 0
1 2 20 27 34 0
1 2 20 29 35 0
1 2 20 33 38 0
1 2 20 34 35 0
1 2 20 34 38 0
1 2 21 27 40 0
1 2 21 30 39 0
1 2 21 30 40 0
1 2 21 33 39 0
1 2 21 33 40 0
1 2 28 29 35 0
1 2 33 38 40 0
1 3 5 9 12 0
1 3 5 9 14 0
1 3 5 9 42 0
1 3 5 10 12 0
1 3 5 10 14 0
1 3 5 10 42 0
1 3 5 12 27 0
1 3 5 12 32 0
1 3 5 14 27 0
1 3 5 14 32 0
1 3 5 27 42 0
1 3 6 9 12 0
1 3 6 9 28 0
1 3 6 9 39 0
1 3 6 9 42 0
1 3 6 12 27 0
1 3 6 12 37 0
1 3 6 12 38 0
1 3 6 24 28 0
1 3 6 24 38 0
1 3 6 24 39 0
1 3 6 24 42 0
1 3 6 27 28 0
1 3 6 27 42 0
1 3 6 28 37 0
1 3 6 37 39 0
1 3 7 9 12 0
1 3 7 9 14 0
1 3 7 9 16 0
1 3 7 9 39 0
1 3 7 10 12 0
1 3 7 10 14 0
1 3 7 12 21 0
1 3 7 12 34 0
1 3 7 14 21 0
1 3 7 14 34 0
1 3 7 16 21 0
1 3 7 21 39 0
1 3 9 12 18 0
1 3 9 14 22 0
1 3 9 14 28 0
1 3 9 16 28 0
1 3 9 16 42 0
1 3 9 18 22 0
1 3 9 18 28 0
1 3 9 18 39 0
1 3 9 22 42 0
1 3 10 12 33 0
1 3 10 12 37 0
1 3 10 14 33 0
1 3 10 14 37 0
1 3 10 33 42 0
1 3 12 18 33 0
1 3 12 18 34 0
1 3 12 18 37 0
1 3 12 21 27 0
1 3 12 21 32 0
1 3 12 21 33 0
1 3 12 27 34 0
1 3 12 32 37 0
1 3 12 32 38 0
1 3 12 33 38 0
1 3 12 34 38 0
1 3 14 21 27 0
1 3 14 21 32 0
1 3 14 21 33 0
1 3 14 22 33 0
1 3 14 22 34 0
1 3 14 22 37 0
1 3 14 24 28 0
1 3 14 24 32 0
1 3 14 24 33 0
1 3 14 24 34 0
1 3 14 27 28 0
1 3 14 27 34 0
1 3 14 28 37 0
1 3 14 32 37 0
1 3 16 21 27 0
1 3 16 21 32 0
1 3 16 21 33 0
1 3 16 27 28 0
1 3 16 27 42 0
1 3 16 33 42 0
1 3 18 22 33 0
1 3 18 22 34 0
1 3 18 22 37 0
1 3 18 28 37 0
1 3 18 33 39 0
1 3 18 37 39 0
1 3 21 32 39 0
1 3 21 33 39 0
1 3 22 33 38 0
1 3 22 33 42 0
1 3 22 34 38 0
1 3 22 34 42 0
1 3 24 32 38 0
1 3 24 32 39 0
1 3 24 33 38 0
1 3 24 33 39 0
1 3 24 33 42 0
1 3 24 34 38 0
1 3 24 34 42 0
1 3 27 34 42 0
1 3 32 37 39 0
1 4 7 9 11 0
1 4 7 9 12 0
1 4 7 9 35 0
1 4 7 9 39 0
1 4 7 11 26 0
1 4 7 11 34 0
1 4 7 11 40 0
1 4 7 12 26 0
1 4 7 12 34 0
1 4 7 12 40 0
1 4 7 26 35 0
1 4 7 26 39 0
1 4 7 34 35 0
1 4 8 11 19 0
1 4 8 11 22 0
1 4 8 11 26 0
1 4 8 11 28 0
1 4 8 18 19 0
1 4 8 18 22 0
1 4 8 18 26 0
1 4 8 18 28 0
1 4 8 19 31 0
1 4 8 19 38 0
1 4 8 22 31 0
1 4 8 22 38 0
1 4 8 26 31 0
1 4 8 26 38 0
1 4 8 28 31 0
1 4 9 11 22 0
1 4 9 11 28 0
1 4 9 12 18 0
1 4 9 18 22 0
1 4 9 18 28 0
1 4 9 18 39 0
1 4 9 28 35 0
1 4 11 19 25 0
1 4 11 19 40 0
1 4 11 22 23 0
1 4 11 22 34 0
1 4 11 23 25 0
1 4 11 23 26 0
1 4 11 23 40 0
1 4 11 25 28 0
1 4 11 25 34 0
1 4 11 27 28 0
1 4 11 27 34 0
1 4 11 27 40 0
1 4 12 18 26 0
1 4 12 18 34 0
1 4 12 18 40 0
1 4 12 26 38 0
1 4 12 27 34 0
1 4 12 27 40 0
1 4 12 34 38 0
1 4 12 38 40 0
1 4 18 19 25 0
1 4 18 19 39 0
1 4 18 19 40 0
1 4 18 22 23 0
1 4 18 22 34 0
1 4 18 23 25 0
1 4 18 23 26 0
1 4 18 23 40 0
1 4 18 25 28 0
1 4 18 25 34 0
1 4 18 26 39 0
1 4 19 24 25 0
1 4 19 24 31 0
1 4 19 24 38 0
1 4 19 24 39 0
1 4 19 38 40 0
1 4 22 31 34 0
1 4 22 34 38 0
1 4 23 24 25 0
1 4 23 24 26 0
1 4 23 25 35 0
1 4 23 26 35 0
1 4 24 25 28 0
1 4 24 25 34 0
1 4 24 26 31 0
1 4 24 26 38 0
1 4 24 26 39 0
1 4 24 28 31 0
1 4 24 31 34 0
1 4 24 34 38 0
1 4 25 28 35 0
1 4 25 34 35 0
1 4 26 31 35 0
1 4 27 28 31 0
1 4 27 31 34 0
1 4 28 31 35 0
1 4 31 34 35 0
1 5 9 11 36 0
1 5 9 11 42 0
1 5 9 12 15 0
1 5 9 14 36 0
1 5 9 15 36 0
1 5 9 15 42 0
1 5 9 29 36 0
1 5 9 29 42 0
1 5 10 12 20 0
1 5 10 12 40 0
1 5 10 12 41 0
1 5 10 14 31 0
1 5 10 14 36 0
1 5 10 19 31 0
1 5 10 19 36 0
1 5 10 19 40 0
1 5 10 20 36 0
1 5 10 20 42 0
1 5 10 23 36 0
1 5 10 23 40 0
1 5 10 23 41 0
1 5 10 23 42 0
1 5 10 31 41 0
1 5 10 31 42 0
1 5 11 19 36 0
1 5 11 19 40 0
1 5 11 23 26 0
1 5 11 23 36 0
1 5 11 23 40 0
1 5 11 23 42 0
1 5 11 27 36 0
1 5 11 27 40 0
1 5 11 27 42 0
1 5 12 15 20 0
1 5 12 15 32 0
1 5 12 15 41 0
1 5 12 20 27 0
1 5 12 26 32 0
1 5 12 26 41 0
1 5 12 27 40 0
1 5 12 32 40 0
1 5 14 27 31 0
1 5 14 27 36 0
1 5 14 32 36 0
1 5 15 20 36 0
1 5 15 20 42 0
1 5 15 32 36 0
1 5 17 19 31 0
1 5 17 19 36 0
1 5 17 19 40 0
1 5 17 27 31 0
1 5 17 27 36 0
1 5 17 27 40 0
1 5 17 29 31 0
1 5 17 29 36 0
1 5 17 31 41 0
1 5 19 32 36 0
1 5 19 32 40 0
1 5 20 27 36 0
1 5 20 27 42 0
1 5 20 29 36 0
1 5 20 29 42 0
1 5 23 26 29 0
1 5 23 26 32 0
1 5 23 26 41 0
1 5 23 29 36 0
1 5 23 29 42 0
1 5 23 32 36 0
1 5 23 32 40 0
1 5 26 29 31 0
1 5 26 31 41 0
1 5 27 31 42 0
1 5 29 31 42 0
1 6 8 11 13 0
1 6 8 11 26 0
1 6 8 11 28 0
1 6 8 11 42 0
1 6 8 13 17 0
1 6 8 13 37 0
1 6 8 13 38 0
1 6 8 17 31 0
1 6 8 26 31 0
1 6 8 26 37 0
1 6 8 26 38 0
1 6 8 28 31 0
1 6 8 28 37 0
1 6 8 31 42 0
1 6 9 11 13 0
1 6 9 11 28 0
1 6 9 11 42 0
1 6 9 12 13 0
1 6 9 13 29 0
1 6 9 13 30 0
1 6 9 28 29 0
1 6 9 28 30 0
1 6 9 29 39 0
1 6 9 29 42 0
1 6 9 30 39 0
1 6 11 13 23 0
1 6 11 13 27 0
1 6 11 23 25 0
1 6 11 23 26 0
1 6 11 23 42 0
1 6 11 25 28 0
1 6 11 27 28 0
1 6 11 27 42 0
1 6 12 13 27 0
1 6 12 13 37 0
1 6 12 13 38 0
1 6 12 20 27 0
1 6 12 20 38 0
1 6 12 26 37 0
1 6 12 26 38 0
1 6 13 17 24 0
1 6 13 17 27 0
1 6 13 17 29 0
1 6 13 23 24 0
1 6 13 23 29 0
1 6 13 23 37 0
1 6 13 24 30 0
1 6 13 24 38 0
1 6 13 30 37 0
1 6 17 24 25 0
1 6 17 24 31 0
1 6 17 24 39 0
1 6 17 25 29 0
1 6 17 27 31 0
1 6 17 29 31 0
1 6 17 29 39 0
1 6 20 24 25 0
1 6 20 24 30 0
1 6 20 24 38 0
1 6 20 24 42 0
1 6 20 25 29 0
1 6 20 27 42 0
1 6 20 29 42 0
1 6 23 24 25 0
1 6 23 24 26 0
1 6 23 24 42 0
1 6 23 25 29 0
1 6 23 25 37 0
1 6 23 26 29 0
1 6 23 26 37 0
1 6 23 29 42 0
1 6 24 25 28 0
1 6 24 26 31 0
1 6 24 26 38 0
1 6 24 26 39 0
1 6 24 28 30 0
1 6 24 28 31 0
1 6 24 30 39 0
1 6 24 31 42 0
1 6 25 28 29 0
1 6 25 28 37 0
1 6 26 29 31 0
1 6 26 29 39 0
1 6 26 37 39 0
1 6 27 28 31 0
1 6 27 31 42 0
1 6 28 29 31 0
1 6 28 30 37 0
1 6 29 31 42 0
1 6 30 37 39 0
1 7 9 11 13 0
1 7 9 11 16 0
1 7 9 11 36 0
1 7 9 12 13 0
1 7 9 12 15 0
1 7 9 13 29 0
1 7 9 13 30 0
1 7 9 14 30 0
1 7 9 14 35 0
1 7 9 14 36 0
1 7 9 15 16 0
1 7 9 15 30 0
1 7 9 15 36 0
1 7 9 16 35 0
1 7 9 29 35 0
1 7 9 29 36 0
1 7 9 29 39 0
1 7 9 30 39 0
1 7 10 12 20 0
1 7 10 12 40 0
1 7 10 12 41 0
1 7 10 14 30 0
1 7 10 14 35 0
1 7 10 14 36 0
1 7 10 20 30 0
1 7 10 20 35 0
1 7 10 20 36 0
1 7 10 30 40 0
1 7 10 30 41 0
1 7 10 35 41 0
1 7 11 13 34 0
1 7 11 13 40 0
1 7 11 16 21 0
1 7 11 21 26 0
1 7 11 21 36 0
1 7 11 21 40 0
1 7 11 34 36 0
1 7 12 13 34 0
1 7 12 13 40 0
1 7 12 13 41 0
1 7 12 15 20 0
1 7 12 15 21 0
1 7 12 15 41 0
1 7 12 20 34 0
1 7 12 21 26 0
1 7 12 21 40 0
1 7 12 26 41 0
1 7 13 17 29 0
1 7 13 17 34 0
1 7 13 17 40 0
1 7 13 17 41 0
1 7 13 30 40 0
1 7 13 30 41 0
1 7 14 21 30 0
1 7 14 21 35 0
1 7 14 21 36 0
1 7 14 34 35 0
1 7 14 34 36 0
1 7 15 16 20 0
1 7 15 16 21 0
1 7 15 16 41 0
1 7 15 20 30 0
1 7 15 20 36 0
1 7 15 21 30 0
1 7 15 21 36 0
1 7 15 30 41 0
1 7 16 20 35 0
1 7 16 21 35 0
1 7 16 35 41 0
1 7 17 21 35 0
1 7 17 21 36 0
1 7 17 21 39 0
1 7 17 21 40 0
1 7 17 29 35 0
1 7 17 29 36 0
1 7 17 29 39 0
1 7 17 34 35 0
1 7 17 34 36 0
1 7 17 35 41 0
1 7 17 39 41 0
1 7 20 29 35 0
1 7 20 29 36 0
1 7 20 34 35 0
1 7 20 34 36 0
1 7 21 26 35 0
1 7 21 26 39 0
1 7 21 30 39 0
1 7 21 30 40 0
1 7 26 29 35 0
1 7 26 29 39 0
1 7 26 35 41 0
1 7 26 39 41 0
1 7 30 39 41 0
1 8 10 14 31 0
1 8 10 14 33 0
1 8 10 14 36 0
1 8 10 14 37 0
1 8 10 19 31 0
1 8 10 19 33 0
1 8 10 19 36 0
1 8 10 19 37 0
1 8 10 31 41 0
1 8 10 31 42 0
1 8 10 33 41 0
1 8 10 33 42 0
1 8 10 37 41 0
1 8 11 13 19 0
1 8 11 13 22 0
1 8 11 16 19 0
1 8 11 16 28 0
1 8 11 16 42 0
1 8 11 19 36 0
1 8 11 22 36 0
1 8 11 22 42 0
1 8 11 28 36 0
1 8 13 17 19 0
1 8 13 17 22 0
1 8 13 17 41 0
1 8 13 19 37 0
1 8 13 19 38 0
1 8 13 22 37 0
1 8 13 22 38 0
1 8 13 37 41 0
1 8 13 38 41 0
1 8 14 22 31 0
1 8 14 22 33 0
1 8 14 22 36 0
1 8 14 22 37 0
1 8 14 28 31 0
1 8 14 28 36 0
1 8 14 28 37 0
1 8 14 32 36 0
1 8 14 32 37 0
1 8 15 16 28 0
1 8 15 16 32 0
1 8 15 16 41 0
1 8 15 16 42 0
1 8 15 22 36 0
1 8 15 22 37 0
1 8 15 22 38 0
1 8 15 22 42 0
1 8 15 28 36 0
1 8 15 28 37 0
1 8 15 32 36 0
1 8 15 32 37 0
1 8 15 32 38 0
1 8 15 37 41 0
1 8 15 38 41 0
1 8 16 19 31 0
1 8 16 19 32 0
1 8 16 19 33 0
1 8 16 28 31 0
1 8 16 31 41 0
1 8 16 31 42 0
1 8 16 33 41 0
1 8 16 33 42 0
1 8 17 18 19 0
1 8 17 18 22 0
1 8 17 19 31 0
1 8 17 19 36 0
1 8 17 22 31 0
1 8 17 22 36 0
1 8 17 31 41 0
1 8 18 19 33 0
1 8 18 19 37 0
1 8 18 22 33 0
1 8 18 22 37 0
1 8 18 26 37 0
1 8 18 28 37 0
1 8 19 32 36 0
1 8 19 32 37 0
1 8 19 32 38 0
1 8 19 33 38 0
1 8 22 31 42 0
1 8 22 33 38 0
1 8 22 33 42 0
1 8 26 31 41 0
1 8 26 32 37 0
1 8 26 32 38 0
1 8 26 37 41 0
1 8 26 38 41 0
1 8 33 38 41 0
1 9 11 13 22 0
1 9 11 16 28 0
1 9 11 16 42 0
1 9 11 22 36 0
1 9 11 22 42 0
1 9 11 28 36 0
1 9 13 22 29 0
1 9 13 22 30 0
1 9 14 22 30 0
1 9 14 22 36 0
1 9 14 28 30 0
1 9 14 28 35 0
1 9 14 28 36 0
1 9 15 16 28 0
1 9 15 16 42 0
1 9 15 22 30 0
1 9 15 22 36 0
1 9 15 22 42 0
1 9 15 28 30 0
1 9 15 28 36 0
1 9 16 28 35 0
1 9 16 35 42 0
1 9 18 22 29 0
1 9 18 22 30 0
1 9 18 28 29 0
1 9 18 28 30 0
1 9 18 29 39 0
1 9 18 30 39 0
1 9 22 29 36 0
1 9 22 29 42 0
1 9 28 29 35 0
1 9 28 29 36 0
1 9 29 35 42 0
1 10 12 20 33 0
1 10 12 33 40 0
1 10 12 33 41 0
1 10 12 37 40 0
1 10 12 37 41 0
1 10 14 25 33 0
1 10 14 25 35 0
1 10 14 25 36 0
1 10 14 25 37 0
1 10 14 30 37 0
1 10 14 31 35 0
1 10 19 25 33 0
1 10 19 25 36 0
1 10 19 25 37 0
1 10 19 33 40 0
1 10 19 37 40 0
1 10 20 25 33 0
1 10 20 25 35 0
1 10 20 25 36 0
1 10 20 33 42 0
1 10 20 35 42 0
1 10 23 25 35 0
1 10 23 25 36 0
1 10 23 25 37 0
1 10 23 35 41 0
1 10 23 35 42 0
1 10 23 37 40 0
1 10 23 37 41 0
1 10 30 37 40 0
1 10 30 37 41 0
1 10 31 35 41 0
1 10 31 35 42 0
1 11 13 19 40 0
1 11 13 22 23 0
1 11 13 22 34 0
1 11 13 23 40 0
1 11 13 27 34 0
1 11 13 27 40 0
1 11 16 19 21 0
1 11 16 19 25 0
1 11 16 21 23 0
1 11 16 21 27 0
1 11 16 23 25 0
1 11 16 23 42 0
1 11 16 25 28 0
1 11 16 27 28 0
1 11 16 27 42 0
1 11 19 21 36 0
1 11 19 21 40 0
1 11 19 25 36 0
1 11 21 23 26 0
1 11 21 23 36 0
1 11 21 23 40 0
1 11 21 27 36 0
1 11 21 27 40 0
1 11 22 23 36 0
1 11 22 23 42 0
1 11 22 34 36 0
1 11 22 34 42 0
1 11 23 25 36 0
1 11 25 28 36 0
1 11 25 34 36 0
1 11 27 28 36 0
1 11 27 34 36 0
1 11 27 34 42 0
1 12 13 27 34 0
1 12 13 27 40 0
1 12 13 34 38 0
1 12 13 37 40 0
1 12 13 37 41 0
1 12 13 38 40 0
1 12 13 38 41 0
1 12 15 20 38 0
1 12 15 21 32 0
1 12 15 32 37 0
1 12 15 32 38 0
1 12 15 37 41 0
1 12 15 38 41 0
1 12 18 20 33 0
1 12 18 20 34 0
1 12 18 26 37 0
1 12 18 33 40 0
1 12 18 37 40 0
1 12 20 27 34 0
1 12 20 33 38 0
1 12 20 34 38 0
1 12 21 26 32 0
1 12 21 27 40 0
1 12 21 32 40 0
1 12 21 33 40 0
1 12 26 32 37 0
1 12 26 32 38 0
1 12 26 37 41 0
1 12 26 38 41 0
1 12 32 37 40 0
1 12 32 38 40 0
1 12 33 38 40 0
1 12 33 38 41 0
1 13 17 19 24 0
1 13 17 19 40 0
1 13 17 22 29 0
1 13 17 22 34 0
1 13 17 24 34 0
1 13 17 27 34 0
1 13 17 27 40 0
1 13 19 24 38 0
1 13 19 37 40 0
1 13 19 38 40 0
1 13 22 23 29 0
1 13 22 23 37 0
1 13 22 30 37 0
1 13 22 34 38 0
1 13 23 37 40 0
1 13 23 37 41 0
1 13 24 34 38 0
1 13 30 37 40 0
1 13 30 37 41 0
1 14 21 27 31 0
1 14 21 27 36 0
1 14 21 30 32 0
1 14 21 31 35 0
1 14 21 32 36 0
1 14 22 30 37 0
1 14 22 31 34 0
1 14 22 34 36 0
1 14 24 25 28 0
1 14 24 25 32 0
1 14 24 25 33 0
1 14 24 25 34 0
1 14 24 28 30 0
1 14 24 28 31 0
1 14 24 30 32 0
1 14 24 31 34 0
1 14 25 28 35 0
1 14 25 28 36 0
1 14 25 28 37 0
1 14 25 32 36 0
1 14 25 32 37 0
1 14 25 34 35 0
1 14 25 34 36 0
1 14 27 28 31 0
1 14 27 28 36 0
1 14 27 31 34 0
1 14 27 34 36 0
1 14 28 30 37 0
1 14 28 31 35 0
1 14 30 32 37 0
1 14 31 34 35 0
1 15 16 20 25 0
1 15 16 20 42 0
1 15 16 21 32 0
1 15 16 25 28 0
1 15 16 25 32 0
1 15 20 22 30 0
1 15 20 22 36 0
1 15 20 22 38 0
1 15 20 22 42 0
1 15 20 24 25 0
1 15 20 24 30 0
1 15 20 24 38 0
1 15 20 24 42 0
1 15 20 25 36 0
1 15 21 30 32 0
1 15 21 32 36 0
1 15 22 30 37 0
1 15 24 25 28 0
1 15 24 25 32 0
1 15 24 28 30 0
1 15 24 30 32 0
1 15 24 32 38 0
1 15 25 28 36 0
1 15 25 28 37 0
1 15 25 32 36 0
1 15 25 32 37 0
1 15 28 30 37 0
1 15 30 32 37 0
1 15 30 37 41 0
1 16 19 21 31 0
1 16 19 21 32 0
1 16 19 21 33 0
1 16 19 25 32 0
1 16 19 25 33 0
1 16 20 25 33 0
1 16 20 25 35 0
1 16 20 27 42 0
1 16 20 33 42 0
1 16 20 35 42 0
1 16 21 23 32 0
1 16 21 23 35 0
1 16 21 27 31 0
1 16 21 31 35 0
1 16 23 25 32 0
1 16 23 25 35 0
1 16 23 35 41 0
1 16 23 35 42 0
1 16 25 28 35 0
1 16 27 28 31 0
1 16 27 31 42 0
1 16 28 31 35 0
1 16 31 35 41 0
1 16 31 35 42 0
1 17 18 19 25 0
1 17 18 19 39 0
1 17 18 19 40 0
1 17 18 22 29 0
1 17 18 22 34 0
1 17 18 25 29 0
1 17 18 25 34 0
1 17 18 29 39 0
1 17 19 21 31 0
1 17 19 21 36 0
1 17 19 21 39 0
1 17 19 21 40 0
1 17 19 24 25 0
1 17 19 24 31 0
1 17 19 24 39 0
1 17 19 25 36 0
1 17 21 27 31 0
1 17 21 27 36 0
1 17 21 27 40 0
1 17 21 31 35 0
1 17 22 29 31 0
1 17 22 29 36 0
1 17 22 31 34 0
1 17 22 34 36 0
1 17 24 25 34 0
1 17 24 31 34 0
1 17 25 29 35 0
1 17 25 29 36 0
1 17 25 34 35 0
1 17 25 34 36 0
1 17 27 31 34 0
1 17 27 34 36 0
1 17 29 31 35 0
1 17 31 34 35 0
1 17 31 35 41 0
1 18 19 25 33 0
1 18 19 25 37 0
1 18 19 33 39 0
1 18 19 33 40 0
1 18 19 37 39 0
1 18 19 37 40 0
1 18 20 22 29 0
1 18 20 22 30 0
1 18 20 22 33 0
1 18 20 22 34 0
1 18 20 25 29 0
1 18 20 25 33 0
1 18 20 25 34 0
1 18 22 23 29 0
1 18 22 23 37 0
1 18 22 30 37 0
1 18 23 25 29 0
1 18 23 25 37 0
1 18 23 26 29 0
1 18 23 26 37 0
1 18 23 37 40 0
1 18 25 28 29 0
1 18 25 28 37 0
1 18 26 29 39 0
1 18 26 37 39 0
1 18 28 30 37 0
1 18 30 37 39 0
1 18 30 37 40 0
1 19 21 32 36 0
1 19 21 32 39 0
1 19 21 32 40 0
1 19 21 33 39 0
1 19 21 33 40 0
1 19 24 25 32 0
1 19 24 25 33 0
1 19 24 32 38 0
1 19 24 32 39 0
1 19 24 33 38 0
1 19 24 33 39 0
1 19 25 32 36 0
1 19 25 32 37 0
1 19 32 37 39 0
1 19 32 37 40 0
1 19 32 38 40 0
1 19 33 38 40 0
1 20 22 29 36 0
1 20 22 29 42 0
1 20 22 33 38 0
1 20 22 33 42 0
1 20 22 34 36 0
1 20 22 34 38 0
1 20 22 34 42 0
1 20 24 25 33 0
1 20 24 25 34 0
1 20 24 33 38 0
1 20 24 33 42 0
1 20 24 34 38 0
1 20 24 34 42 0
1 20 25 29 35 0
1 20 25 29 36 0
1 20 25 34 35 0
1 20 25 34 36 0
1 20 27 34 36 0
1 20 27 34 42 0
1 20 29 35 42 0
1 20 34 35 42 0
1 21 23 26 32 0
1 21 23 26 35 0
1 21 23 32 36 0
1 21 23 32 40 0
1 21 26 31 35 0
1 21 26 32 39 0
1 21 30 32 39 0
1 21 30 32 40 0
1 22 23 29 36 0
1 22 23 29 42 0
1 22 29 31 42 0
1 22 31 34 42 0
1 23 24 25 32 0
1 23 24 26 32 0
1 23 25 29 35 0
1 23 25 29 36 0
1 23 25 32 36 0
1 23 25 32 37 0
1 23 26 29 35 0
1 23 26 32 37 0
1 23 26 35 41 0
1 23 26 37 41 0
1 23 29 35 42 0
1 23 32 37 40 0
1 24 26 32 38 0
1 24 26 32 39 0
1 24 30 32 39 0
1 24 31 34 42 0
1 25 28 29 35 0
1 25 28 29 36 0
1 26 29 31 35 0
1 26 31 35 41 0
1 26 32 37 39 0
1 26 37 39 41 0
1 27 31 34 42 0
1 28 29 31 35 0
1 29 31 35 42 0
1 30 32 37 39 0
1 30 32 37 40 0
1 30 37 39 41 0
1 31 34 35 42 0
